(set-logic QF_NRA)
(declare-fun y1 () Real)
(declare-fun y2 () Real)
(declare-fun y3 () Real)
(declare-fun y4 () Real)
(declare-fun y5 () Real)
(declare-fun y6 () Real)
(assert
(and
(and (<= 2 y1) (<= y1 (/ 252 100)))(and (<= 2 y2) (<= y2 (/ 252 100)))(and (<= 2 y3) (<= y3 (/ 252 100)))(and (<= (/ 252 100) y4) (<= y4 (/ 282842712475 100000000000)))(and (<= 2 y5) (<= y5 (/ 252 100)))(and (<= 2 y6) (<= y6 (/ 252 100)))(not (> (+ (- (+ (/ (/ 314159265 100000000) 2) (ite (< (ite (<= 0 (- (+ (- (* (- (* y1 y1)) (* y3 y3)) (* (* y2 y2) (* y5 y5))) (+ (* (* y1 y1) (* y4 y4)) (+ (- (* (* y3 y3) (* y6 y6)) (* (* y4 y4) (* y6 y6))) (* (* y2 y2) (+ (- (* y2 y2)) (+ (* y1 y1) (+ (- (* y3 y3) (* y5 y5)) (+ (* y4 y4) (* y6 y6))))))))))) (- (+ (- (* (- (* y1 y1)) (* y3 y3)) (* (* y2 y2) (* y5 y5))) (+ (* (* y1 y1) (* y4 y4)) (+ (- (* (* y3 y3) (* y6 y6)) (* (* y4 y4) (* y6 y6))) (* (* y2 y2) (+ (- (* y2 y2)) (+ (* y1 y1) (+ (- (* y3 y3) (* y5 y5)) (+ (* y4 y4) (* y6 y6)))))))))) (- (- (+ (- (* (- (* y1 y1)) (* y3 y3)) (* (* y2 y2) (* y5 y5))) (+ (* (* y1 y1) (* y4 y4)) (+ (- (* (* y3 y3) (* y6 y6)) (* (* y4 y4) (* y6 y6))) (* (* y2 y2) (+ (- (* y2 y2)) (+ (* y1 y1) (+ (- (* y3 y3) (* y5 y5)) (+ (* y4 y4) (* y6 y6)))))))))))) (^ (* 4 (* (* y2 y2) (+ (* (* y2 y2) (* (* y5 y5) (+ (- (* y2 y2)) (+ (* y1 y1) (+ (- (* y3 y3) (* y5 y5)) (+ (* y4 y4) (* y6 y6))))))) (+ (* (* y1 y1) (* (* y4 y4) (+ (- (* y2 y2) (* y1 y1)) (+ (* y3 y3) (+ (- (* y5 y5) (* y4 y4)) (* y6 y6)))))) (- (- (- (- (* (* y3 y3) (* (* y6 y6) (+ (* y2 y2) (+ (- (* y1 y1) (* y3 y3)) (+ (* y5 y5) (- (* y4 y4) (* y6 y6))))))) (* (* y1 y1) (* (* y3 y3) (* y5 y5)))) (* (* y2 y2) (* (* y3 y3) (* y4 y4)))) (* (* y2 y2) (* (* y1 y1) (* y6 y6)))) (* (* y5 y5) (* (* y4 y4) (* y6 y6)))))))) (/ 5 10))) (arctan (/ (- (+ (- (* (- (* y1 y1)) (* y3 y3)) (* (* y2 y2) (* y5 y5))) (+ (* (* y1 y1) (* y4 y4)) (+ (- (* (* y3 y3) (* y6 y6)) (* (* y4 y4) (* y6 y6))) (* (* y2 y2) (+ (- (* y2 y2)) (+ (* y1 y1) (+ (- (* y3 y3) (* y5 y5)) (+ (* y4 y4) (* y6 y6)))))))))) (^ (* 4 (* (* y2 y2) (+ (* (* y2 y2) (* (* y5 y5) (+ (- (* y2 y2)) (+ (* y1 y1) (+ (- (* y3 y3) (* y5 y5)) (+ (* y4 y4) (* y6 y6))))))) (+ (* (* y1 y1) (* (* y4 y4) (+ (- (* y2 y2) (* y1 y1)) (+ (* y3 y3) (+ (- (* y5 y5) (* y4 y4)) (* y6 y6)))))) (- (- (- (- (* (* y3 y3) (* (* y6 y6) (+ (* y2 y2) (+ (- (* y1 y1) (* y3 y3)) (+ (* y5 y5) (- (* y4 y4) (* y6 y6))))))) (* (* y1 y1) (* (* y3 y3) (* y5 y5)))) (* (* y2 y2) (* (* y3 y3) (* y4 y4)))) (* (* y2 y2) (* (* y1 y1) (* y6 y6)))) (* (* y5 y5) (* (* y4 y4) (* y6 y6)))))))) (/ 5 10)))) (ite (< 0 (- (+ (- (* (- (* y1 y1)) (* y3 y3)) (* (* y2 y2) (* y5 y5))) (+ (* (* y1 y1) (* y4 y4)) (+ (- (* (* y3 y3) (* y6 y6)) (* (* y4 y4) (* y6 y6))) (* (* y2 y2) (+ (- (* y2 y2)) (+ (* y1 y1) (+ (- (* y3 y3) (* y5 y5)) (+ (* y4 y4) (* y6 y6))))))))))) (- (/ (/ 314159265 100000000) 2) (arctan (/ (^ (* 4 (* (* y2 y2) (+ (* (* y2 y2) (* (* y5 y5) (+ (- (* y2 y2)) (+ (* y1 y1) (+ (- (* y3 y3) (* y5 y5)) (+ (* y4 y4) (* y6 y6))))))) (+ (* (* y1 y1) (* (* y4 y4) (+ (- (* y2 y2) (* y1 y1)) (+ (* y3 y3) (+ (- (* y5 y5) (* y4 y4)) (* y6 y6)))))) (- (- (- (- (* (* y3 y3) (* (* y6 y6) (+ (* y2 y2) (+ (- (* y1 y1) (* y3 y3)) (+ (* y5 y5) (- (* y4 y4) (* y6 y6))))))) (* (* y1 y1) (* (* y3 y3) (* y5 y5)))) (* (* y2 y2) (* (* y3 y3) (* y4 y4)))) (* (* y2 y2) (* (* y1 y1) (* y6 y6)))) (* (* y5 y5) (* (* y4 y4) (* y6 y6)))))))) (/ 5 10)) (- (+ (- (* (- (* y1 y1)) (* y3 y3)) (* (* y2 y2) (* y5 y5))) (+ (* (* y1 y1) (* y4 y4)) (+ (- (* (* y3 y3) (* y6 y6)) (* (* y4 y4) (* y6 y6))) (* (* y2 y2) (+ (- (* y2 y2)) (+ (* y1 y1) (+ (- (* y3 y3) (* y5 y5)) (+ (* y4 y4) (* y6 y6))))))))))))) (ite (< (- (+ (- (* (- (* y1 y1)) (* y3 y3)) (* (* y2 y2) (* y5 y5))) (+ (* (* y1 y1) (* y4 y4)) (+ (- (* (* y3 y3) (* y6 y6)) (* (* y4 y4) (* y6 y6))) (* (* y2 y2) (+ (- (* y2 y2)) (+ (* y1 y1) (+ (- (* y3 y3) (* y5 y5)) (+ (* y4 y4) (* y6 y6)))))))))) 0) (- (- (/ (/ 314159265 100000000) 2)) (arctan (/ (^ (* 4 (* (* y2 y2) (+ (* (* y2 y2) (* (* y5 y5) (+ (- (* y2 y2)) (+ (* y1 y1) (+ (- (* y3 y3) (* y5 y5)) (+ (* y4 y4) (* y6 y6))))))) (+ (* (* y1 y1) (* (* y4 y4) (+ (- (* y2 y2) (* y1 y1)) (+ (* y3 y3) (+ (- (* y5 y5) (* y4 y4)) (* y6 y6)))))) (- (- (- (- (* (* y3 y3) (* (* y6 y6) (+ (* y2 y2) (+ (- (* y1 y1) (* y3 y3)) (+ (* y5 y5) (- (* y4 y4) (* y6 y6))))))) (* (* y1 y1) (* (* y3 y3) (* y5 y5)))) (* (* y2 y2) (* (* y3 y3) (* y4 y4)))) (* (* y2 y2) (* (* y1 y1) (* y6 y6)))) (* (* y5 y5) (* (* y4 y4) (* y6 y6)))))))) (/ 5 10)) (- (+ (- (* (- (* y1 y1)) (* y3 y3)) (* (* y2 y2) (* y5 y5))) (+ (* (* y1 y1) (* y4 y4)) (+ (- (* (* y3 y3) (* y6 y6)) (* (* y4 y4) (* y6 y6))) (* (* y2 y2) (+ (- (* y2 y2)) (+ (* y1 y1) (+ (- (* y3 y3) (* y5 y5)) (+ (* y4 y4) (* y6 y6))))))))))))) (/ 314159265 100000000))))) (/ 1083 1000)) (+ (- (* (/ 6365 10000) (- y1 2)) (* (/ 198 1000) (- y2 2))) (+ (* (/ 352 1000) (- y3 2)) (+ (- (* (/ 416 1000) (- y4 (/ 252 100))) (* (/ 66 100) (- y5 2))) (* (/ 071 1000) (- y6 2)))))) 0)))
)
(check-sat)
(exit)
